certificates/rado_a25_c19_N193.cnf
c Rad2 upper bound instance: x1 + 25*x2 - x3 = 19, interval [1,193]
p cnf 193 1592
1 7 0
-1 -7 0
1 2 32 0
-1 -2 -32 0
1 3 57 0
-1 -3 -57 0
1 4 82 0
-1 -4 -82 0
1 5 107 0
-1 -5 -107 0
1 6 132 0
-1 -6 -132 0
1 7 157 0
-1 -7 -157 0
1 8 182 0
-1 -8 -182 0
1 2 8 0
-1 -2 -8 0
2 33 0
-2 -33 0
2 3 58 0
-2 -3 -58 0
2 4 83 0
-2 -4 -83 0
2 5 108 0
-2 -5 -108 0
2 6 133 0
-2 -6 -133 0
2 7 158 0
-2 -7 -158 0
2 8 183 0
-2 -8 -183 0
1 3 9 0
-1 -3 -9 0
2 3 34 0
-2 -3 -34 0
3 59 0
-3 -59 0
3 4 84 0
-3 -4 -84 0
3 5 109 0
-3 -5 -109 0
3 6 134 0
-3 -6 -134 0
3 7 159 0
-3 -7 -159 0
3 8 184 0
-3 -8 -184 0
1 4 10 0
-1 -4 -10 0
2 4 35 0
-2 -4 -35 0
3 4 60 0
-3 -4 -60 0
4 85 0
-4 -85 0
4 5 110 0
-4 -5 -110 0
4 6 135 0
-4 -6 -135 0
4 7 160 0
-4 -7 -160 0
4 8 185 0
-4 -8 -185 0
1 5 11 0
-1 -5 -11 0
2 5 36 0
-2 -5 -36 0
3 5 61 0
-3 -5 -61 0
4 5 86 0
-4 -5 -86 0
5 111 0
-5 -111 0
5 6 136 0
-5 -6 -136 0
5 7 161 0
-5 -7 -161 0
5 8 186 0
-5 -8 -186 0
1 6 12 0
-1 -6 -12 0
2 6 37 0
-2 -6 -37 0
3 6 62 0
-3 -6 -62 0
4 6 87 0
-4 -6 -87 0
5 6 112 0
-5 -6 -112 0
6 137 0
-6 -137 0
6 7 162 0
-6 -7 -162 0
6 8 187 0
-6 -8 -187 0
1 7 13 0
-1 -7 -13 0
2 7 38 0
-2 -7 -38 0
3 7 63 0
-3 -7 -63 0
4 7 88 0
-4 -7 -88 0
5 7 113 0
-5 -7 -113 0
6 7 138 0
-6 -7 -138 0
7 163 0
-7 -163 0
7 8 188 0
-7 -8 -188 0
1 8 14 0
-1 -8 -14 0
2 8 39 0
-2 -8 -39 0
3 8 64 0
-3 -8 -64 0
4 8 89 0
-4 -8 -89 0
5 8 114 0
-5 -8 -114 0
6 8 139 0
-6 -8 -139 0
7 8 164 0
-7 -8 -164 0
8 189 0
-8 -189 0
1 9 15 0
-1 -9 -15 0
2 9 40 0
-2 -9 -40 0
3 9 65 0
-3 -9 -65 0
4 9 90 0
-4 -9 -90 0
5 9 115 0
-5 -9 -115 0
6 9 140 0
-6 -9 -140 0
7 9 165 0
-7 -9 -165 0
8 9 190 0
-8 -9 -190 0
1 10 16 0
-1 -10 -16 0
2 10 41 0
-2 -10 -41 0
3 10 66 0
-3 -10 -66 0
4 10 91 0
-4 -10 -91 0
5 10 116 0
-5 -10 -116 0
6 10 141 0
-6 -10 -141 0
7 10 166 0
-7 -10 -166 0
8 10 191 0
-8 -10 -191 0
1 11 17 0
-1 -11 -17 0
2 11 42 0
-2 -11 -42 0
3 11 67 0
-3 -11 -67 0
4 11 92 0
-4 -11 -92 0
5 11 117 0
-5 -11 -117 0
6 11 142 0
-6 -11 -142 0
7 11 167 0
-7 -11 -167 0
8 11 192 0
-8 -11 -192 0
1 12 18 0
-1 -12 -18 0
2 12 43 0
-2 -12 -43 0
3 12 68 0
-3 -12 -68 0
4 12 93 0
-4 -12 -93 0
5 12 118 0
-5 -12 -118 0
6 12 143 0
-6 -12 -143 0
7 12 168 0
-7 -12 -168 0
8 12 193 0
-8 -12 -193 0
1 13 19 0
-1 -13 -19 0
2 13 44 0
-2 -13 -44 0
3 13 69 0
-3 -13 -69 0
4 13 94 0
-4 -13 -94 0
5 13 119 0
-5 -13 -119 0
6 13 144 0
-6 -13 -144 0
7 13 169 0
-7 -13 -169 0
1 14 20 0
-1 -14 -20 0
2 14 45 0
-2 -14 -45 0
3 14 70 0
-3 -14 -70 0
4 14 95 0
-4 -14 -95 0
5 14 120 0
-5 -14 -120 0
6 14 145 0
-6 -14 -145 0
7 14 170 0
-7 -14 -170 0
1 15 21 0
-1 -15 -21 0
2 15 46 0
-2 -15 -46 0
3 15 71 0
-3 -15 -71 0
4 15 96 0
-4 -15 -96 0
5 15 121 0
-5 -15 -121 0
6 15 146 0
-6 -15 -146 0
7 15 171 0
-7 -15 -171 0
1 16 22 0
-1 -16 -22 0
2 16 47 0
-2 -16 -47 0
3 16 72 0
-3 -16 -72 0
4 16 97 0
-4 -16 -97 0
5 16 122 0
-5 -16 -122 0
6 16 147 0
-6 -16 -147 0
7 16 172 0
-7 -16 -172 0
1 17 23 0
-1 -17 -23 0
2 17 48 0
-2 -17 -48 0
3 17 73 0
-3 -17 -73 0
4 17 98 0
-4 -17 -98 0
5 17 123 0
-5 -17 -123 0
6 17 148 0
-6 -17 -148 0
7 17 173 0
-7 -17 -173 0
1 18 24 0
-1 -18 -24 0
2 18 49 0
-2 -18 -49 0
3 18 74 0
-3 -18 -74 0
4 18 99 0
-4 -18 -99 0
5 18 124 0
-5 -18 -124 0
6 18 149 0
-6 -18 -149 0
7 18 174 0
-7 -18 -174 0
1 19 25 0
-1 -19 -25 0
2 19 50 0
-2 -19 -50 0
3 19 75 0
-3 -19 -75 0
4 19 100 0
-4 -19 -100 0
5 19 125 0
-5 -19 -125 0
6 19 150 0
-6 -19 -150 0
7 19 175 0
-7 -19 -175 0
1 20 26 0
-1 -20 -26 0
2 20 51 0
-2 -20 -51 0
3 20 76 0
-3 -20 -76 0
4 20 101 0
-4 -20 -101 0
5 20 126 0
-5 -20 -126 0
6 20 151 0
-6 -20 -151 0
7 20 176 0
-7 -20 -176 0
1 21 27 0
-1 -21 -27 0
2 21 52 0
-2 -21 -52 0
3 21 77 0
-3 -21 -77 0
4 21 102 0
-4 -21 -102 0
5 21 127 0
-5 -21 -127 0
6 21 152 0
-6 -21 -152 0
7 21 177 0
-7 -21 -177 0
1 22 28 0
-1 -22 -28 0
2 22 53 0
-2 -22 -53 0
3 22 78 0
-3 -22 -78 0
4 22 103 0
-4 -22 -103 0
5 22 128 0
-5 -22 -128 0
6 22 153 0
-6 -22 -153 0
7 22 178 0
-7 -22 -178 0
1 23 29 0
-1 -23 -29 0
2 23 54 0
-2 -23 -54 0
3 23 79 0
-3 -23 -79 0
4 23 104 0
-4 -23 -104 0
5 23 129 0
-5 -23 -129 0
6 23 154 0
-6 -23 -154 0
7 23 179 0
-7 -23 -179 0
1 24 30 0
-1 -24 -30 0
2 24 55 0
-2 -24 -55 0
3 24 80 0
-3 -24 -80 0
4 24 105 0
-4 -24 -105 0
5 24 130 0
-5 -24 -130 0
6 24 155 0
-6 -24 -155 0
7 24 180 0
-7 -24 -180 0
1 25 31 0
-1 -25 -31 0
2 25 56 0
-2 -25 -56 0
3 25 81 0
-3 -25 -81 0
4 25 106 0
-4 -25 -106 0
5 25 131 0
-5 -25 -131 0
6 25 156 0
-6 -25 -156 0
7 25 181 0
-7 -25 -181 0
1 26 32 0
-1 -26 -32 0
2 26 57 0
-2 -26 -57 0
3 26 82 0
-3 -26 -82 0
4 26 107 0
-4 -26 -107 0
5 26 132 0
-5 -26 -132 0
6 26 157 0
-6 -26 -157 0
7 26 182 0
-7 -26 -182 0
1 27 33 0
-1 -27 -33 0
2 27 58 0
-2 -27 -58 0
3 27 83 0
-3 -27 -83 0
4 27 108 0
-4 -27 -108 0
5 27 133 0
-5 -27 -133 0
6 27 158 0
-6 -27 -158 0
7 27 183 0
-7 -27 -183 0
1 28 34 0
-1 -28 -34 0
2 28 59 0
-2 -28 -59 0
3 28 84 0
-3 -28 -84 0
4 28 109 0
-4 -28 -109 0
5 28 134 0
-5 -28 -134 0
6 28 159 0
-6 -28 -159 0
7 28 184 0
-7 -28 -184 0
1 29 35 0
-1 -29 -35 0
2 29 60 0
-2 -29 -60 0
3 29 85 0
-3 -29 -85 0
4 29 110 0
-4 -29 -110 0
5 29 135 0
-5 -29 -135 0
6 29 160 0
-6 -29 -160 0
7 29 185 0
-7 -29 -185 0
1 30 36 0
-1 -30 -36 0
2 30 61 0
-2 -30 -61 0
3 30 86 0
-3 -30 -86 0
4 30 111 0
-4 -30 -111 0
5 30 136 0
-5 -30 -136 0
6 30 161 0
-6 -30 -161 0
7 30 186 0
-7 -30 -186 0
1 31 37 0
-1 -31 -37 0
2 31 62 0
-2 -31 -62 0
3 31 87 0
-3 -31 -87 0
4 31 112 0
-4 -31 -112 0
5 31 137 0
-5 -31 -137 0
6 31 162 0
-6 -31 -162 0
7 31 187 0
-7 -31 -187 0
1 32 38 0
-1 -32 -38 0
2 32 63 0
-2 -32 -63 0
3 32 88 0
-3 -32 -88 0
4 32 113 0
-4 -32 -113 0
5 32 138 0
-5 -32 -138 0
6 32 163 0
-6 -32 -163 0
7 32 188 0
-7 -32 -188 0
1 33 39 0
-1 -33 -39 0
2 33 64 0
-2 -33 -64 0
3 33 89 0
-3 -33 -89 0
4 33 114 0
-4 -33 -114 0
5 33 139 0
-5 -33 -139 0
6 33 164 0
-6 -33 -164 0
7 33 189 0
-7 -33 -189 0
1 34 40 0
-1 -34 -40 0
2 34 65 0
-2 -34 -65 0
3 34 90 0
-3 -34 -90 0
4 34 115 0
-4 -34 -115 0
5 34 140 0
-5 -34 -140 0
6 34 165 0
-6 -34 -165 0
7 34 190 0
-7 -34 -190 0
1 35 41 0
-1 -35 -41 0
2 35 66 0
-2 -35 -66 0
3 35 91 0
-3 -35 -91 0
4 35 116 0
-4 -35 -116 0
5 35 141 0
-5 -35 -141 0
6 35 166 0
-6 -35 -166 0
7 35 191 0
-7 -35 -191 0
1 36 42 0
-1 -36 -42 0
2 36 67 0
-2 -36 -67 0
3 36 92 0
-3 -36 -92 0
4 36 117 0
-4 -36 -117 0
5 36 142 0
-5 -36 -142 0
6 36 167 0
-6 -36 -167 0
7 36 192 0
-7 -36 -192 0
1 37 43 0
-1 -37 -43 0
2 37 68 0
-2 -37 -68 0
3 37 93 0
-3 -37 -93 0
4 37 118 0
-4 -37 -118 0
5 37 143 0
-5 -37 -143 0
6 37 168 0
-6 -37 -168 0
7 37 193 0
-7 -37 -193 0
1 38 44 0
-1 -38 -44 0
2 38 69 0
-2 -38 -69 0
3 38 94 0
-3 -38 -94 0
4 38 119 0
-4 -38 -119 0
5 38 144 0
-5 -38 -144 0
6 38 169 0
-6 -38 -169 0
1 39 45 0
-1 -39 -45 0
2 39 70 0
-2 -39 -70 0
3 39 95 0
-3 -39 -95 0
4 39 120 0
-4 -39 -120 0
5 39 145 0
-5 -39 -145 0
6 39 170 0
-6 -39 -170 0
1 40 46 0
-1 -40 -46 0
2 40 71 0
-2 -40 -71 0
3 40 96 0
-3 -40 -96 0
4 40 121 0
-4 -40 -121 0
5 40 146 0
-5 -40 -146 0
6 40 171 0
-6 -40 -171 0
1 41 47 0
-1 -41 -47 0
2 41 72 0
-2 -41 -72 0
3 41 97 0
-3 -41 -97 0
4 41 122 0
-4 -41 -122 0
5 41 147 0
-5 -41 -147 0
6 41 172 0
-6 -41 -172 0
1 42 48 0
-1 -42 -48 0
2 42 73 0
-2 -42 -73 0
3 42 98 0
-3 -42 -98 0
4 42 123 0
-4 -42 -123 0
5 42 148 0
-5 -42 -148 0
6 42 173 0
-6 -42 -173 0
1 43 49 0
-1 -43 -49 0
2 43 74 0
-2 -43 -74 0
3 43 99 0
-3 -43 -99 0
4 43 124 0
-4 -43 -124 0
5 43 149 0
-5 -43 -149 0
6 43 174 0
-6 -43 -174 0
1 44 50 0
-1 -44 -50 0
2 44 75 0
-2 -44 -75 0
3 44 100 0
-3 -44 -100 0
4 44 125 0
-4 -44 -125 0
5 44 150 0
-5 -44 -150 0
6 44 175 0
-6 -44 -175 0
1 45 51 0
-1 -45 -51 0
2 45 76 0
-2 -45 -76 0
3 45 101 0
-3 -45 -101 0
4 45 126 0
-4 -45 -126 0
5 45 151 0
-5 -45 -151 0
6 45 176 0
-6 -45 -176 0
1 46 52 0
-1 -46 -52 0
2 46 77 0
-2 -46 -77 0
3 46 102 0
-3 -46 -102 0
4 46 127 0
-4 -46 -127 0
5 46 152 0
-5 -46 -152 0
6 46 177 0
-6 -46 -177 0
1 47 53 0
-1 -47 -53 0
2 47 78 0
-2 -47 -78 0
3 47 103 0
-3 -47 -103 0
4 47 128 0
-4 -47 -128 0
5 47 153 0
-5 -47 -153 0
6 47 178 0
-6 -47 -178 0
1 48 54 0
-1 -48 -54 0
2 48 79 0
-2 -48 -79 0
3 48 104 0
-3 -48 -104 0
4 48 129 0
-4 -48 -129 0
5 48 154 0
-5 -48 -154 0
6 48 179 0
-6 -48 -179 0
1 49 55 0
-1 -49 -55 0
2 49 80 0
-2 -49 -80 0
3 49 105 0
-3 -49 -105 0
4 49 130 0
-4 -49 -130 0
5 49 155 0
-5 -49 -155 0
6 49 180 0
-6 -49 -180 0
1 50 56 0
-1 -50 -56 0
2 50 81 0
-2 -50 -81 0
3 50 106 0
-3 -50 -106 0
4 50 131 0
-4 -50 -131 0
5 50 156 0
-5 -50 -156 0
6 50 181 0
-6 -50 -181 0
1 51 57 0
-1 -51 -57 0
2 51 82 0
-2 -51 -82 0
3 51 107 0
-3 -51 -107 0
4 51 132 0
-4 -51 -132 0
5 51 157 0
-5 -51 -157 0
6 51 182 0
-6 -51 -182 0
1 52 58 0
-1 -52 -58 0
2 52 83 0
-2 -52 -83 0
3 52 108 0
-3 -52 -108 0
4 52 133 0
-4 -52 -133 0
5 52 158 0
-5 -52 -158 0
6 52 183 0
-6 -52 -183 0
1 53 59 0
-1 -53 -59 0
2 53 84 0
-2 -53 -84 0
3 53 109 0
-3 -53 -109 0
4 53 134 0
-4 -53 -134 0
5 53 159 0
-5 -53 -159 0
6 53 184 0
-6 -53 -184 0
1 54 60 0
-1 -54 -60 0
2 54 85 0
-2 -54 -85 0
3 54 110 0
-3 -54 -110 0
4 54 135 0
-4 -54 -135 0
5 54 160 0
-5 -54 -160 0
6 54 185 0
-6 -54 -185 0
1 55 61 0
-1 -55 -61 0
2 55 86 0
-2 -55 -86 0
3 55 111 0
-3 -55 -111 0
4 55 136 0
-4 -55 -136 0
5 55 161 0
-5 -55 -161 0
6 55 186 0
-6 -55 -186 0
1 56 62 0
-1 -56 -62 0
2 56 87 0
-2 -56 -87 0
3 56 112 0
-3 -56 -112 0
4 56 137 0
-4 -56 -137 0
5 56 162 0
-5 -56 -162 0
6 56 187 0
-6 -56 -187 0
1 57 63 0
-1 -57 -63 0
2 57 88 0
-2 -57 -88 0
3 57 113 0
-3 -57 -113 0
4 57 138 0
-4 -57 -138 0
5 57 163 0
-5 -57 -163 0
6 57 188 0
-6 -57 -188 0
1 58 64 0
-1 -58 -64 0
2 58 89 0
-2 -58 -89 0
3 58 114 0
-3 -58 -114 0
4 58 139 0
-4 -58 -139 0
5 58 164 0
-5 -58 -164 0
6 58 189 0
-6 -58 -189 0
1 59 65 0
-1 -59 -65 0
2 59 90 0
-2 -59 -90 0
3 59 115 0
-3 -59 -115 0
4 59 140 0
-4 -59 -140 0
5 59 165 0
-5 -59 -165 0
6 59 190 0
-6 -59 -190 0
1 60 66 0
-1 -60 -66 0
2 60 91 0
-2 -60 -91 0
3 60 116 0
-3 -60 -116 0
4 60 141 0
-4 -60 -141 0
5 60 166 0
-5 -60 -166 0
6 60 191 0
-6 -60 -191 0
1 61 67 0
-1 -61 -67 0
2 61 92 0
-2 -61 -92 0
3 61 117 0
-3 -61 -117 0
4 61 142 0
-4 -61 -142 0
5 61 167 0
-5 -61 -167 0
6 61 192 0
-6 -61 -192 0
1 62 68 0
-1 -62 -68 0
2 62 93 0
-2 -62 -93 0
3 62 118 0
-3 -62 -118 0
4 62 143 0
-4 -62 -143 0
5 62 168 0
-5 -62 -168 0
6 62 193 0
-6 -62 -193 0
1 63 69 0
-1 -63 -69 0
2 63 94 0
-2 -63 -94 0
3 63 119 0
-3 -63 -119 0
4 63 144 0
-4 -63 -144 0
5 63 169 0
-5 -63 -169 0
1 64 70 0
-1 -64 -70 0
2 64 95 0
-2 -64 -95 0
3 64 120 0
-3 -64 -120 0
4 64 145 0
-4 -64 -145 0
5 64 170 0
-5 -64 -170 0
1 65 71 0
-1 -65 -71 0
2 65 96 0
-2 -65 -96 0
3 65 121 0
-3 -65 -121 0
4 65 146 0
-4 -65 -146 0
5 65 171 0
-5 -65 -171 0
1 66 72 0
-1 -66 -72 0
2 66 97 0
-2 -66 -97 0
3 66 122 0
-3 -66 -122 0
4 66 147 0
-4 -66 -147 0
5 66 172 0
-5 -66 -172 0
1 67 73 0
-1 -67 -73 0
2 67 98 0
-2 -67 -98 0
3 67 123 0
-3 -67 -123 0
4 67 148 0
-4 -67 -148 0
5 67 173 0
-5 -67 -173 0
1 68 74 0
-1 -68 -74 0
2 68 99 0
-2 -68 -99 0
3 68 124 0
-3 -68 -124 0
4 68 149 0
-4 -68 -149 0
5 68 174 0
-5 -68 -174 0
1 69 75 0
-1 -69 -75 0
2 69 100 0
-2 -69 -100 0
3 69 125 0
-3 -69 -125 0
4 69 150 0
-4 -69 -150 0
5 69 175 0
-5 -69 -175 0
1 70 76 0
-1 -70 -76 0
2 70 101 0
-2 -70 -101 0
3 70 126 0
-3 -70 -126 0
4 70 151 0
-4 -70 -151 0
5 70 176 0
-5 -70 -176 0
1 71 77 0
-1 -71 -77 0
2 71 102 0
-2 -71 -102 0
3 71 127 0
-3 -71 -127 0
4 71 152 0
-4 -71 -152 0
5 71 177 0
-5 -71 -177 0
1 72 78 0
-1 -72 -78 0
2 72 103 0
-2 -72 -103 0
3 72 128 0
-3 -72 -128 0
4 72 153 0
-4 -72 -153 0
5 72 178 0
-5 -72 -178 0
1 73 79 0
-1 -73 -79 0
2 73 104 0
-2 -73 -104 0
3 73 129 0
-3 -73 -129 0
4 73 154 0
-4 -73 -154 0
5 73 179 0
-5 -73 -179 0
1 74 80 0
-1 -74 -80 0
2 74 105 0
-2 -74 -105 0
3 74 130 0
-3 -74 -130 0
4 74 155 0
-4 -74 -155 0
5 74 180 0
-5 -74 -180 0
1 75 81 0
-1 -75 -81 0
2 75 106 0
-2 -75 -106 0
3 75 131 0
-3 -75 -131 0
4 75 156 0
-4 -75 -156 0
5 75 181 0
-5 -75 -181 0
1 76 82 0
-1 -76 -82 0
2 76 107 0
-2 -76 -107 0
3 76 132 0
-3 -76 -132 0
4 76 157 0
-4 -76 -157 0
5 76 182 0
-5 -76 -182 0
1 77 83 0
-1 -77 -83 0
2 77 108 0
-2 -77 -108 0
3 77 133 0
-3 -77 -133 0
4 77 158 0
-4 -77 -158 0
5 77 183 0
-5 -77 -183 0
1 78 84 0
-1 -78 -84 0
2 78 109 0
-2 -78 -109 0
3 78 134 0
-3 -78 -134 0
4 78 159 0
-4 -78 -159 0
5 78 184 0
-5 -78 -184 0
1 79 85 0
-1 -79 -85 0
2 79 110 0
-2 -79 -110 0
3 79 135 0
-3 -79 -135 0
4 79 160 0
-4 -79 -160 0
5 79 185 0
-5 -79 -185 0
1 80 86 0
-1 -80 -86 0
2 80 111 0
-2 -80 -111 0
3 80 136 0
-3 -80 -136 0
4 80 161 0
-4 -80 -161 0
5 80 186 0
-5 -80 -186 0
1 81 87 0
-1 -81 -87 0
2 81 112 0
-2 -81 -112 0
3 81 137 0
-3 -81 -137 0
4 81 162 0
-4 -81 -162 0
5 81 187 0
-5 -81 -187 0
1 82 88 0
-1 -82 -88 0
2 82 113 0
-2 -82 -113 0
3 82 138 0
-3 -82 -138 0
4 82 163 0
-4 -82 -163 0
5 82 188 0
-5 -82 -188 0
1 83 89 0
-1 -83 -89 0
2 83 114 0
-2 -83 -114 0
3 83 139 0
-3 -83 -139 0
4 83 164 0
-4 -83 -164 0
5 83 189 0
-5 -83 -189 0
1 84 90 0
-1 -84 -90 0
2 84 115 0
-2 -84 -115 0
3 84 140 0
-3 -84 -140 0
4 84 165 0
-4 -84 -165 0
5 84 190 0
-5 -84 -190 0
1 85 91 0
-1 -85 -91 0
2 85 116 0
-2 -85 -116 0
3 85 141 0
-3 -85 -141 0
4 85 166 0
-4 -85 -166 0
5 85 191 0
-5 -85 -191 0
1 86 92 0
-1 -86 -92 0
2 86 117 0
-2 -86 -117 0
3 86 142 0
-3 -86 -142 0
4 86 167 0
-4 -86 -167 0
5 86 192 0
-5 -86 -192 0
1 87 93 0
-1 -87 -93 0
2 87 118 0
-2 -87 -118 0
3 87 143 0
-3 -87 -143 0
4 87 168 0
-4 -87 -168 0
5 87 193 0
-5 -87 -193 0
1 88 94 0
-1 -88 -94 0
2 88 119 0
-2 -88 -119 0
3 88 144 0
-3 -88 -144 0
4 88 169 0
-4 -88 -169 0
1 89 95 0
-1 -89 -95 0
2 89 120 0
-2 -89 -120 0
3 89 145 0
-3 -89 -145 0
4 89 170 0
-4 -89 -170 0
1 90 96 0
-1 -90 -96 0
2 90 121 0
-2 -90 -121 0
3 90 146 0
-3 -90 -146 0
4 90 171 0
-4 -90 -171 0
1 91 97 0
-1 -91 -97 0
2 91 122 0
-2 -91 -122 0
3 91 147 0
-3 -91 -147 0
4 91 172 0
-4 -91 -172 0
1 92 98 0
-1 -92 -98 0
2 92 123 0
-2 -92 -123 0
3 92 148 0
-3 -92 -148 0
4 92 173 0
-4 -92 -173 0
1 93 99 0
-1 -93 -99 0
2 93 124 0
-2 -93 -124 0
3 93 149 0
-3 -93 -149 0
4 93 174 0
-4 -93 -174 0
1 94 100 0
-1 -94 -100 0
2 94 125 0
-2 -94 -125 0
3 94 150 0
-3 -94 -150 0
4 94 175 0
-4 -94 -175 0
1 95 101 0
-1 -95 -101 0
2 95 126 0
-2 -95 -126 0
3 95 151 0
-3 -95 -151 0
4 95 176 0
-4 -95 -176 0
1 96 102 0
-1 -96 -102 0
2 96 127 0
-2 -96 -127 0
3 96 152 0
-3 -96 -152 0
4 96 177 0
-4 -96 -177 0
1 97 103 0
-1 -97 -103 0
2 97 128 0
-2 -97 -128 0
3 97 153 0
-3 -97 -153 0
4 97 178 0
-4 -97 -178 0
1 98 104 0
-1 -98 -104 0
2 98 129 0
-2 -98 -129 0
3 98 154 0
-3 -98 -154 0
4 98 179 0
-4 -98 -179 0
1 99 105 0
-1 -99 -105 0
2 99 130 0
-2 -99 -130 0
3 99 155 0
-3 -99 -155 0
4 99 180 0
-4 -99 -180 0
1 100 106 0
-1 -100 -106 0
2 100 131 0
-2 -100 -131 0
3 100 156 0
-3 -100 -156 0
4 100 181 0
-4 -100 -181 0
1 101 107 0
-1 -101 -107 0
2 101 132 0
-2 -101 -132 0
3 101 157 0
-3 -101 -157 0
4 101 182 0
-4 -101 -182 0
1 102 108 0
-1 -102 -108 0
2 102 133 0
-2 -102 -133 0
3 102 158 0
-3 -102 -158 0
4 102 183 0
-4 -102 -183 0
1 103 109 0
-1 -103 -109 0
2 103 134 0
-2 -103 -134 0
3 103 159 0
-3 -103 -159 0
4 103 184 0
-4 -103 -184 0
1 104 110 0
-1 -104 -110 0
2 104 135 0
-2 -104 -135 0
3 104 160 0
-3 -104 -160 0
4 104 185 0
-4 -104 -185 0
1 105 111 0
-1 -105 -111 0
2 105 136 0
-2 -105 -136 0
3 105 161 0
-3 -105 -161 0
4 105 186 0
-4 -105 -186 0
1 106 112 0
-1 -106 -112 0
2 106 137 0
-2 -106 -137 0
3 106 162 0
-3 -106 -162 0
4 106 187 0
-4 -106 -187 0
1 107 113 0
-1 -107 -113 0
2 107 138 0
-2 -107 -138 0
3 107 163 0
-3 -107 -163 0
4 107 188 0
-4 -107 -188 0
1 108 114 0
-1 -108 -114 0
2 108 139 0
-2 -108 -139 0
3 108 164 0
-3 -108 -164 0
4 108 189 0
-4 -108 -189 0
1 109 115 0
-1 -109 -115 0
2 109 140 0
-2 -109 -140 0
3 109 165 0
-3 -109 -165 0
4 109 190 0
-4 -109 -190 0
1 110 116 0
-1 -110 -116 0
2 110 141 0
-2 -110 -141 0
3 110 166 0
-3 -110 -166 0
4 110 191 0
-4 -110 -191 0
1 111 117 0
-1 -111 -117 0
2 111 142 0
-2 -111 -142 0
3 111 167 0
-3 -111 -167 0
4 111 192 0
-4 -111 -192 0
1 112 118 0
-1 -112 -118 0
2 112 143 0
-2 -112 -143 0
3 112 168 0
-3 -112 -168 0
4 112 193 0
-4 -112 -193 0
1 113 119 0
-1 -113 -119 0
2 113 144 0
-2 -113 -144 0
3 113 169 0
-3 -113 -169 0
1 114 120 0
-1 -114 -120 0
2 114 145 0
-2 -114 -145 0
3 114 170 0
-3 -114 -170 0
1 115 121 0
-1 -115 -121 0
2 115 146 0
-2 -115 -146 0
3 115 171 0
-3 -115 -171 0
1 116 122 0
-1 -116 -122 0
2 116 147 0
-2 -116 -147 0
3 116 172 0
-3 -116 -172 0
1 117 123 0
-1 -117 -123 0
2 117 148 0
-2 -117 -148 0
3 117 173 0
-3 -117 -173 0
1 118 124 0
-1 -118 -124 0
2 118 149 0
-2 -118 -149 0
3 118 174 0
-3 -118 -174 0
1 119 125 0
-1 -119 -125 0
2 119 150 0
-2 -119 -150 0
3 119 175 0
-3 -119 -175 0
1 120 126 0
-1 -120 -126 0
2 120 151 0
-2 -120 -151 0
3 120 176 0
-3 -120 -176 0
1 121 127 0
-1 -121 -127 0
2 121 152 0
-2 -121 -152 0
3 121 177 0
-3 -121 -177 0
1 122 128 0
-1 -122 -128 0
2 122 153 0
-2 -122 -153 0
3 122 178 0
-3 -122 -178 0
1 123 129 0
-1 -123 -129 0
2 123 154 0
-2 -123 -154 0
3 123 179 0
-3 -123 -179 0
1 124 130 0
-1 -124 -130 0
2 124 155 0
-2 -124 -155 0
3 124 180 0
-3 -124 -180 0
1 125 131 0
-1 -125 -131 0
2 125 156 0
-2 -125 -156 0
3 125 181 0
-3 -125 -181 0
1 126 132 0
-1 -126 -132 0
2 126 157 0
-2 -126 -157 0
3 126 182 0
-3 -126 -182 0
1 127 133 0
-1 -127 -133 0
2 127 158 0
-2 -127 -158 0
3 127 183 0
-3 -127 -183 0
1 128 134 0
-1 -128 -134 0
2 128 159 0
-2 -128 -159 0
3 128 184 0
-3 -128 -184 0
1 129 135 0
-1 -129 -135 0
2 129 160 0
-2 -129 -160 0
3 129 185 0
-3 -129 -185 0
1 130 136 0
-1 -130 -136 0
2 130 161 0
-2 -130 -161 0
3 130 186 0
-3 -130 -186 0
1 131 137 0
-1 -131 -137 0
2 131 162 0
-2 -131 -162 0
3 131 187 0
-3 -131 -187 0
1 132 138 0
-1 -132 -138 0
2 132 163 0
-2 -132 -163 0
3 132 188 0
-3 -132 -188 0
1 133 139 0
-1 -133 -139 0
2 133 164 0
-2 -133 -164 0
3 133 189 0
-3 -133 -189 0
1 134 140 0
-1 -134 -140 0
2 134 165 0
-2 -134 -165 0
3 134 190 0
-3 -134 -190 0
1 135 141 0
-1 -135 -141 0
2 135 166 0
-2 -135 -166 0
3 135 191 0
-3 -135 -191 0
1 136 142 0
-1 -136 -142 0
2 136 167 0
-2 -136 -167 0
3 136 192 0
-3 -136 -192 0
1 137 143 0
-1 -137 -143 0
2 137 168 0
-2 -137 -168 0
3 137 193 0
-3 -137 -193 0
1 138 144 0
-1 -138 -144 0
2 138 169 0
-2 -138 -169 0
1 139 145 0
-1 -139 -145 0
2 139 170 0
-2 -139 -170 0
1 140 146 0
-1 -140 -146 0
2 140 171 0
-2 -140 -171 0
1 141 147 0
-1 -141 -147 0
2 141 172 0
-2 -141 -172 0
1 142 148 0
-1 -142 -148 0
2 142 173 0
-2 -142 -173 0
1 143 149 0
-1 -143 -149 0
2 143 174 0
-2 -143 -174 0
1 144 150 0
-1 -144 -150 0
2 144 175 0
-2 -144 -175 0
1 145 151 0
-1 -145 -151 0
2 145 176 0
-2 -145 -176 0
1 146 152 0
-1 -146 -152 0
2 146 177 0
-2 -146 -177 0
1 147 153 0
-1 -147 -153 0
2 147 178 0
-2 -147 -178 0
1 148 154 0
-1 -148 -154 0
2 148 179 0
-2 -148 -179 0
1 149 155 0
-1 -149 -155 0
2 149 180 0
-2 -149 -180 0
1 150 156 0
-1 -150 -156 0
2 150 181 0
-2 -150 -181 0
1 151 157 0
-1 -151 -157 0
2 151 182 0
-2 -151 -182 0
1 152 158 0
-1 -152 -158 0
2 152 183 0
-2 -152 -183 0
1 153 159 0
-1 -153 -159 0
2 153 184 0
-2 -153 -184 0
1 154 160 0
-1 -154 -160 0
2 154 185 0
-2 -154 -185 0
1 155 161 0
-1 -155 -161 0
2 155 186 0
-2 -155 -186 0
1 156 162 0
-1 -156 -162 0
2 156 187 0
-2 -156 -187 0
1 157 163 0
-1 -157 -163 0
2 157 188 0
-2 -157 -188 0
1 158 164 0
-1 -158 -164 0
2 158 189 0
-2 -158 -189 0
1 159 165 0
-1 -159 -165 0
2 159 190 0
-2 -159 -190 0
1 160 166 0
-1 -160 -166 0
2 160 191 0
-2 -160 -191 0
1 161 167 0
-1 -161 -167 0
2 161 192 0
-2 -161 -192 0
1 162 168 0
-1 -162 -168 0
2 162 193 0
-2 -162 -193 0
1 163 169 0
-1 -163 -169 0
1 164 170 0
-1 -164 -170 0
1 165 171 0
-1 -165 -171 0
1 166 172 0
-1 -166 -172 0
1 167 173 0
-1 -167 -173 0
1 168 174 0
-1 -168 -174 0
1 169 175 0
-1 -169 -175 0
1 170 176 0
-1 -170 -176 0
1 171 177 0
-1 -171 -177 0
1 172 178 0
-1 -172 -178 0
1 173 179 0
-1 -173 -179 0
1 174 180 0
-1 -174 -180 0
1 175 181 0
-1 -175 -181 0
1 176 182 0
-1 -176 -182 0
1 177 183 0
-1 -177 -183 0
1 178 184 0
-1 -178 -184 0
1 179 185 0
-1 -179 -185 0
1 180 186 0
-1 -180 -186 0
1 181 187 0
-1 -181 -187 0
1 182 188 0
-1 -182 -188 0
1 183 189 0
-1 -183 -189 0
1 184 190 0
-1 -184 -190 0
1 185 191 0
-1 -185 -191 0
1 186 192 0
-1 -186 -192 0
1 187 193 0
-1 -187 -193 0
